\ Model dominator-partition-fixed-k
\ LP format - for model browsing. Use MPS format to capture full model detail.
Minimize
  - 0.8473834212520857 x[1,1] + 0.5598375844802292 x[1,2]
   - 0.123181537118213 x[1,3] + 0.4469303556618824 x[1,4]
   + 0.9559790239932053 x[1,5] + 0.0769917408208673 x[2,1]
   + 0.0022409273198758 x[2,2] - 0.8558977332804769 x[2,3]
   - 0.4631220397962577 x[2,4] - 2.3499834888007776e-04 x[2,5]
   + 0.358459992241881 x[3,1] + 0.6074780722087509 x[3,2]
   - 0.2381177337029232 x[3,3] - 0.8681273061881898 x[3,4]
   - 0.4237088013840129 x[3,5] + 0.8191870554392273 x[4,1]
   - 0.573229292840169 x[4,2] - 0.0957520763646338 x[4,3]
   + 0.8624120393780434 x[4,4] - 0.950201544899304 x[4,5]
   + 0.2010978349282451 x[5,1] + 0.9002590008272913 x[5,2]
   - 0.5393942419580704 x[5,3] + 0.0969798384720608 x[5,4]
   + 0.8182567497734625 x[5,5] - 0.7336611084814997 d[1,1]
   + 0.0468251613475317 d[1,2] + 0.5008197182040697 d[1,3]
   + 0.3380264817678276 d[1,4] - 0.0644942805100386 d[1,5]
   - 0.5903018194044098 d[2,1] - 0.0184682218178591 d[2,2]
   - 0.255230621229882 d[2,3] - 0.0451976902968232 d[2,4]
   - 0.2682192284388141 d[2,5] + 0.6758359886185212 d[3,1]
   + 0.5372950130390186 d[3,2] - 0.3720106455746757 d[3,3]
   + 0.145250665287908 d[3,4] - 0.4479019033386098 d[3,5]
   - 0.0943141349071992 d[4,1] - 0.2940432681112106 d[4,2]
   + 0.3147989255595165 d[4,3] - 0.2592978340239296 d[4,4]
   - 0.0818140442171371 d[4,5] + 0.4386482450180831 d[5,1]
   - 0.1740163417723308 d[5,2] + 0.8128465383286774 d[5,3]
   - 0.6390967615946368 d[5,4] + 0.4822377458265286 d[5,5]
Subject To
 Assign_1: x[1,1] + x[1,2] + x[1,3] + x[1,4] + x[1,5] = 1
 Assign_2: x[2,1] + x[2,2] + x[2,3] + x[2,4] + x[2,5] = 1
 Assign_3: x[3,1] + x[3,2] + x[3,3] + x[3,4] + x[3,5] = 1
 Assign_4: x[4,1] + x[4,2] + x[4,3] + x[4,4] + x[4,5] = 1
 Assign_5: x[5,1] + x[5,2] + x[5,3] + x[5,4] + x[5,5] = 1
 NonEmptyBlock_1: x[1,1] + x[2,1] + x[3,1] + x[4,1] + x[5,1] >= 1
 NonEmptyBlock_2: x[1,2] + x[2,2] + x[3,2] + x[4,2] + x[5,2] >= 1
 NonEmptyBlock_3: x[1,3] + x[2,3] + x[3,3] + x[4,3] + x[5,3] >= 1
 NonEmptyBlock_4: x[1,4] + x[2,4] + x[3,4] + x[4,4] + x[5,4] >= 1
 NonEmptyBlock_5: x[1,5] + x[2,5] + x[3,5] + x[4,5] + x[5,5] >= 1
 Dominate_1_3_1: x[3,1] + d[1,1] <= 1
 Dominate_1_3_2: x[3,2] + d[1,2] <= 1
 Dominate_1_3_3: x[3,3] + d[1,3] <= 1
 Dominate_1_3_4: x[3,4] + d[1,4] <= 1
 Dominate_1_3_5: x[3,5] + d[1,5] <= 1
 Dominate_1_4_1: x[4,1] + d[1,1] <= 1
 Dominate_1_4_2: x[4,2] + d[1,2] <= 1
 Dominate_1_4_3: x[4,3] + d[1,3] <= 1
 Dominate_1_4_4: x[4,4] + d[1,4] <= 1
 Dominate_1_4_5: x[4,5] + d[1,5] <= 1
 Dominate_1_5_1: x[5,1] + d[1,1] <= 1
 Dominate_1_5_2: x[5,2] + d[1,2] <= 1
 Dominate_1_5_3: x[5,3] + d[1,3] <= 1
 Dominate_1_5_4: x[5,4] + d[1,4] <= 1
 Dominate_1_5_5: x[5,5] + d[1,5] <= 1
 Dominate_2_4_1: x[4,1] + d[2,1] <= 1
 Dominate_2_4_2: x[4,2] + d[2,2] <= 1
 Dominate_2_4_3: x[4,3] + d[2,3] <= 1
 Dominate_2_4_4: x[4,4] + d[2,4] <= 1
 Dominate_2_4_5: x[4,5] + d[2,5] <= 1
 Dominate_2_5_1: x[5,1] + d[2,1] <= 1
 Dominate_2_5_2: x[5,2] + d[2,2] <= 1
 Dominate_2_5_3: x[5,3] + d[2,3] <= 1
 Dominate_2_5_4: x[5,4] + d[2,4] <= 1
 Dominate_2_5_5: x[5,5] + d[2,5] <= 1
 Dominate_3_1_1: x[1,1] + d[3,1] <= 1
 Dominate_3_1_2: x[1,2] + d[3,2] <= 1
 Dominate_3_1_3: x[1,3] + d[3,3] <= 1
 Dominate_3_1_4: x[1,4] + d[3,4] <= 1
 Dominate_3_1_5: x[1,5] + d[3,5] <= 1
 Dominate_3_5_1: x[5,1] + d[3,1] <= 1
 Dominate_3_5_2: x[5,2] + d[3,2] <= 1
 Dominate_3_5_3: x[5,3] + d[3,3] <= 1
 Dominate_3_5_4: x[5,4] + d[3,4] <= 1
 Dominate_3_5_5: x[5,5] + d[3,5] <= 1
 Dominate_4_1_1: x[1,1] + d[4,1] <= 1
 Dominate_4_1_2: x[1,2] + d[4,2] <= 1
 Dominate_4_1_3: x[1,3] + d[4,3] <= 1
 Dominate_4_1_4: x[1,4] + d[4,4] <= 1
 Dominate_4_1_5: x[1,5] + d[4,5] <= 1
 Dominate_4_2_1: x[2,1] + d[4,1] <= 1
 Dominate_4_2_2: x[2,2] + d[4,2] <= 1
 Dominate_4_2_3: x[2,3] + d[4,3] <= 1
 Dominate_4_2_4: x[2,4] + d[4,4] <= 1
 Dominate_4_2_5: x[2,5] + d[4,5] <= 1
 Dominate_5_1_1: x[1,1] + d[5,1] <= 1
 Dominate_5_1_2: x[1,2] + d[5,2] <= 1
 Dominate_5_1_3: x[1,3] + d[5,3] <= 1
 Dominate_5_1_4: x[1,4] + d[5,4] <= 1
 Dominate_5_1_5: x[1,5] + d[5,5] <= 1
 Dominate_5_2_1: x[2,1] + d[5,1] <= 1
 Dominate_5_2_2: x[2,2] + d[5,2] <= 1
 Dominate_5_2_3: x[2,3] + d[5,3] <= 1
 Dominate_5_2_4: x[2,4] + d[5,4] <= 1
 Dominate_5_2_5: x[2,5] + d[5,5] <= 1
 Dominate_5_3_1: x[3,1] + d[5,1] <= 1
 Dominate_5_3_2: x[3,2] + d[5,2] <= 1
 Dominate_5_3_3: x[3,3] + d[5,3] <= 1
 Dominate_5_3_4: x[3,4] + d[5,4] <= 1
 Dominate_5_3_5: x[3,5] + d[5,5] <= 1
 DominateBlock_1: d[1,1] + d[1,2] + d[1,3] + d[1,4] + d[1,5] = 1
 DominateBlock_2: d[2,1] + d[2,2] + d[2,3] + d[2,4] + d[2,5] = 1
 DominateBlock_3: d[3,1] + d[3,2] + d[3,3] + d[3,4] + d[3,5] = 1
 DominateBlock_4: d[4,1] + d[4,2] + d[4,3] + d[4,4] + d[4,5] = 1
 DominateBlock_5: d[5,1] + d[5,2] + d[5,3] + d[5,4] + d[5,5] = 1
 Order_1: x[1,1] - x[1,2] + x[2,1] - x[2,2] + x[3,1] - x[3,2] + x[4,1]
   - x[4,2] + x[5,1] - x[5,2] >= 0
 Order_2: x[1,2] - x[1,3] + x[2,2] - x[2,3] + x[3,2] - x[3,3] + x[4,2]
   - x[4,3] + x[5,2] - x[5,3] >= 0
 Order_3: x[1,3] - x[1,4] + x[2,3] - x[2,4] + x[3,3] - x[3,4] + x[4,3]
   - x[4,4] + x[5,3] - x[5,4] >= 0
 Order_4: x[1,4] - x[1,5] + x[2,4] - x[2,5] + x[3,4] - x[3,5] + x[4,4]
   - x[4,5] + x[5,4] - x[5,5] >= 0
 Valid_Min_Assignment1: x[1,1] + x[2,1] + x[3,1] + x[4,1] + x[5,1] >= 1
 Valid_Max_Assignment_1: x[1,1] + x[2,1] + x[3,1] + x[4,1] + x[5,1] <= 1
 Valid_Max_Assignment_2: x[1,2] + x[2,2] + x[3,2] + x[4,2] + x[5,2] <= 1
 Valid_Max_Assignment_3: x[1,3] + x[2,3] + x[3,3] + x[4,3] + x[5,3] <= 1
 Valid_Max_Assignment_4: x[1,4] + x[2,4] + x[3,4] + x[4,4] + x[5,4] <= 1
 Valid_Max_Assignment_5: x[1,5] + x[2,5] + x[3,5] + x[4,5] + x[5,5] <= 1
 Valid_Dominate_1_1: - x[1,1] - x[2,1] + d[1,1] >= -1
 Valid_Dominate_1_2: - x[1,2] - x[2,2] + d[1,2] >= -1
 Valid_Dominate_1_3: - x[1,3] - x[2,3] + d[1,3] >= -1
 Valid_Dominate_1_4: - x[1,4] - x[2,4] + d[1,4] >= -1
 Valid_Dominate_1_5: - x[1,5] - x[2,5] + d[1,5] >= -1
 Valid_Dominate_2_1: - x[1,1] - x[2,1] - x[3,1] + d[2,1] >= -2
 Valid_Dominate_2_2: - x[1,2] - x[2,2] - x[3,2] + d[2,2] >= -2
 Valid_Dominate_2_3: - x[1,3] - x[2,3] - x[3,3] + d[2,3] >= -2
 Valid_Dominate_2_4: - x[1,4] - x[2,4] - x[3,4] + d[2,4] >= -2
 Valid_Dominate_2_5: - x[1,5] - x[2,5] - x[3,5] + d[2,5] >= -2
 Valid_Dominate_3_1: - x[2,1] - x[3,1] - x[4,1] + d[3,1] >= -2
 Valid_Dominate_3_2: - x[2,2] - x[3,2] - x[4,2] + d[3,2] >= -2
 Valid_Dominate_3_3: - x[2,3] - x[3,3] - x[4,3] + d[3,3] >= -2
 Valid_Dominate_3_4: - x[2,4] - x[3,4] - x[4,4] + d[3,4] >= -2
 Valid_Dominate_3_5: - x[2,5] - x[3,5] - x[4,5] + d[3,5] >= -2
 Valid_Dominate_4_1: - x[3,1] - x[4,1] - x[5,1] + d[4,1] >= -2
 Valid_Dominate_4_2: - x[3,2] - x[4,2] - x[5,2] + d[4,2] >= -2
 Valid_Dominate_4_3: - x[3,3] - x[4,3] - x[5,3] + d[4,3] >= -2
 Valid_Dominate_4_4: - x[3,4] - x[4,4] - x[5,4] + d[4,4] >= -2
 Valid_Dominate_4_5: - x[3,5] - x[4,5] - x[5,5] + d[4,5] >= -2
 Valid_Dominate_5_1: - x[4,1] - x[5,1] + d[5,1] >= -1
 Valid_Dominate_5_2: - x[4,2] - x[5,2] + d[5,2] >= -1
 Valid_Dominate_5_3: - x[4,3] - x[5,3] + d[5,3] >= -1
 Valid_Dominate_5_4: - x[4,4] - x[5,4] + d[5,4] >= -1
 Valid_Dominate_5_5: - x[4,5] - x[5,5] + d[5,5] >= -1
 Valid_Dominate_Upper_1_1: - x[1,1] - x[2,1] + d[1,1] <= 0
 Valid_Dominate_Upper_1_2: - x[1,2] - x[2,2] + d[1,2] <= 0
 Valid_Dominate_Upper_1_3: - x[1,3] - x[2,3] + d[1,3] <= 0
 Valid_Dominate_Upper_1_4: - x[1,4] - x[2,4] + d[1,4] <= 0
 Valid_Dominate_Upper_1_5: - x[1,5] - x[2,5] + d[1,5] <= 0
 Valid_Dominate_Upper_2_1: - x[1,1] - x[2,1] - x[3,1] + d[2,1] <= 0
 Valid_Dominate_Upper_2_2: - x[1,2] - x[2,2] - x[3,2] + d[2,2] <= 0
 Valid_Dominate_Upper_2_3: - x[1,3] - x[2,3] - x[3,3] + d[2,3] <= 0
 Valid_Dominate_Upper_2_4: - x[1,4] - x[2,4] - x[3,4] + d[2,4] <= 0
 Valid_Dominate_Upper_2_5: - x[1,5] - x[2,5] - x[3,5] + d[2,5] <= 0
 Valid_Dominate_Upper_3_1: - x[2,1] - x[3,1] - x[4,1] + d[3,1] <= 0
 Valid_Dominate_Upper_3_2: - x[2,2] - x[3,2] - x[4,2] + d[3,2] <= 0
 Valid_Dominate_Upper_3_3: - x[2,3] - x[3,3] - x[4,3] + d[3,3] <= 0
 Valid_Dominate_Upper_3_4: - x[2,4] - x[3,4] - x[4,4] + d[3,4] <= 0
 Valid_Dominate_Upper_3_5: - x[2,5] - x[3,5] - x[4,5] + d[3,5] <= 0
 Valid_Dominate_Upper_4_1: - x[3,1] - x[4,1] - x[5,1] + d[4,1] <= 0
 Valid_Dominate_Upper_4_2: - x[3,2] - x[4,2] - x[5,2] + d[4,2] <= 0
 Valid_Dominate_Upper_4_3: - x[3,3] - x[4,3] - x[5,3] + d[4,3] <= 0
 Valid_Dominate_Upper_4_4: - x[3,4] - x[4,4] - x[5,4] + d[4,4] <= 0
 Valid_Dominate_Upper_4_5: - x[3,5] - x[4,5] - x[5,5] + d[4,5] <= 0
 Valid_Dominate_Upper_5_1: - x[4,1] - x[5,1] + d[5,1] <= 0
 Valid_Dominate_Upper_5_2: - x[4,2] - x[5,2] + d[5,2] <= 0
 Valid_Dominate_Upper_5_3: - x[4,3] - x[5,3] + d[5,3] <= 0
 Valid_Dominate_Upper_5_4: - x[4,4] - x[5,4] + d[5,4] <= 0
 Valid_Dominate_Upper_5_5: - x[4,5] - x[5,5] + d[5,5] <= 0
 Valid_Indep_1_{1,_4}: d[1,1] + d[4,1] <= 1
 Valid_Indep_1_{1,_5}: d[1,1] + d[5,1] <= 1
 Valid_Indep_1_{2,_5}: d[2,1] + d[5,1] <= 1
 Valid_Indep_2_{1,_4}: d[1,2] + d[4,2] <= 1
 Valid_Indep_2_{1,_5}: d[1,2] + d[5,2] <= 1
 Valid_Indep_2_{2,_5}: d[2,2] + d[5,2] <= 1
 Valid_Indep_3_{1,_4}: d[1,3] + d[4,3] <= 1
 Valid_Indep_3_{1,_5}: d[1,3] + d[5,3] <= 1
 Valid_Indep_3_{2,_5}: d[2,3] + d[5,3] <= 1
 Valid_Indep_4_{1,_4}: d[1,4] + d[4,4] <= 1
 Valid_Indep_4_{1,_5}: d[1,4] + d[5,4] <= 1
 Valid_Indep_4_{2,_5}: d[2,4] + d[5,4] <= 1
 Valid_Indep_5_{1,_4}: d[1,5] + d[4,5] <= 1
 Valid_Indep_5_{1,_5}: d[1,5] + d[5,5] <= 1
 Valid_Indep_5_{2,_5}: d[2,5] + d[5,5] <= 1
Bounds
 x[1,1] <= 1
 x[1,2] <= 1
 x[1,3] <= 1
 x[1,4] <= 1
 x[1,5] <= 1
 x[2,1] <= 1
 x[2,2] <= 1
 x[2,3] <= 1
 x[2,4] <= 1
 x[2,5] <= 1
 x[3,1] <= 1
 x[3,2] <= 1
 x[3,3] <= 1
 x[3,4] <= 1
 x[3,5] <= 1
 x[4,1] <= 1
 x[4,2] <= 1
 x[4,3] <= 1
 x[4,4] <= 1
 x[4,5] <= 1
 x[5,1] <= 1
 x[5,2] <= 1
 x[5,3] <= 1
 x[5,4] <= 1
 x[5,5] <= 1
 d[1,1] <= 1
 d[1,2] <= 1
 d[1,3] <= 1
 d[1,4] <= 1
 d[1,5] <= 1
 d[2,1] <= 1
 d[2,2] <= 1
 d[2,3] <= 1
 d[2,4] <= 1
 d[2,5] <= 1
 d[3,1] <= 1
 d[3,2] <= 1
 d[3,3] <= 1
 d[3,4] <= 1
 d[3,5] <= 1
 d[4,1] <= 1
 d[4,2] <= 1
 d[4,3] <= 1
 d[4,4] <= 1
 d[4,5] <= 1
 d[5,1] <= 1
 d[5,2] <= 1
 d[5,3] <= 1
 d[5,4] <= 1
 d[5,5] <= 1
End
